70
1 0 4
2 0 17
2 1 21
3 0 9
3 1 22
3 2 10
4 0 12
4 1 15
4 2 24
4 3 11
5 0 11
5 1 12
5 2 1
5 3 20
5 4 24
6 0 14
6 1 22
6 2 14
6 3 16
6 4 2
6 5 18
7 0 3
7 1 23
7 2 25
7 3 11
7 4 8
7 5 12
7 6 7
8 0 24
8 1 21
8 2 23
8 3 16
8 4 24
8 5 22
8 6 14
8 7 25
9 0 13
9 1 14
9 2 1
9 3 25
9 4 21
9 5 9
9 6 5
9 7 19
9 8 5
10 0 3
10 1 18
10 2 7
10 3 2
10 4 21
10 5 18
10 6 2
10 7 17
10 8 18
10 9 23
11 0 18
11 1 17
11 2 22
11 3 25
11 4 16
11 5 14
11 6 18
11 7 23
11 8 12
11 9 7
11 10 10
12 0 1
12 1 1
12 2 18
12 3 4
12 4 3
12 5 19
12 6 12
12 7 15
12 8 21
12 9 17
12 10 20
12 11 14
13 0 19
13 1 20
13 2 16
13 3 1
13 4 12
13 5 15
13 6 9
13 7 1
13 8 13
13 9 23
13 10 8
13 11 14
13 12 1
14 0 25
14 1 18
14 2 20
14 3 2
14 4 8
14 5 1
14 6 22
14 7 24
14 8 16
14 9 23
14 10 1
14 11 13
14 12 3
14 13 22
15 0 9
15 1 16
15 2 14
15 3 22
15 4 20
15 5 17
15 6 9
15 7 7
15 8 3
15 9 23
15 10 2
15 11 2
15 12 2
15 13 12
15 14 16
16 0 17
16 1 18
16 2 21
16 3 24
16 4 8
16 5 25
16 6 25
16 7 5
16 8 12
16 9 14
16 10 16
16 11 18
16 12 18
16 13 17
16 14 13
16 15 14
17 0 14
17 1 25
17 2 22
17 3 11
17 4 12
17 5 7
17 6 18
17 7 10
17 8 13
17 9 15
17 10 14
17 11 7
17 12 2
17 13 7
17 14 8
17 15 9
17 16 6
18 0 13
18 1 19
18 2 1
18 3 18
18 4 13
18 5 1
18 6 18
18 7 2
18 8 2
18 9 23
18 10 23
18 11 4
18 12 24
18 13 8
18 14 2
18 15 14
18 16 11
18 17 22
19 0 9
19 1 17
19 2 11
19 3 21
19 4 5
19 5 16
19 6 24
19 7 14
19 8 17
19 9 11
19 10 8
19 11 5
19 12 11
19 13 13
19 14 12
19 15 3
19 16 2
19 17 2
19 18 15
20 0 7
20 1 12
20 2 21
20 3 19
20 4 4
20 5 17
20 6 16
20 7 15
20 8 15
20 9 3
20 10 17
20 11 17
20 12 2
20 13 3
20 14 19
20 15 16
20 16 16
20 17 11
20 18 24
20 19 9
21 0 15
21 1 25
21 2 2
21 3 8
21 4 24
21 5 19
21 6 4
21 7 5
21 8 12
21 9 22
21 10 1
21 11 24
21 12 10
21 13 21
21 14 25
21 15 6
21 16 11
21 17 5
21 18 23
21 19 17
21 20 22
22 0 17
22 1 7
22 2 15
22 3 1
22 4 17
22 5 3
22 6 10
22 7 14
22 8 16
22 9 14
22 10 21
22 11 25
22 12 22
22 13 21
22 14 17
22 15 9
22 16 6
22 17 1
22 18 13
22 19 10
22 20 18
22 21 24
23 0 9
23 1 1
23 2 5
23 3 7
23 4 1
23 5 9
23 6 16
23 7 4
23 8 4
23 9 13
23 10 4
23 11 10
23 12 5
23 13 12
23 14 19
23 15 8
23 16 2
23 17 18
23 18 21
23 19 13
23 20 4
23 21 20
23 22 6
24 0 15
24 1 9
24 2 19
24 3 9
24 4 4
24 5 12
24 6 19
24 7 20
24 8 24
24 9 2
24 10 11
24 11 17
24 12 24
24 13 25
24 14 8
24 15 21
24 16 1
24 17 13
24 18 15
24 19 19
24 20 21
24 21 4
24 22 7
24 23 7
25 0 6
25 1 6
25 2 5
25 3 21
25 4 23
25 5 5
25 6 17
25 7 23
25 8 1
25 9 17
25 10 11
25 11 16
25 12 21
25 13 12
25 14 12
25 15 24
25 16 21
25 17 13
25 18 21
25 19 15
25 20 15
25 21 22
25 22 9
25 23 21
25 24 18
26 0 2
26 1 2
26 2 25
26 3 2
26 4 16
26 5 13
26 6 25
26 7 22
26 8 12
26 9 21
26 10 2
26 11 20
26 12 13
26 13 1
26 14 5
26 15 25
26 16 12
26 17 15
26 18 6
26 19 15
26 20 1
26 21 21
26 22 1
26 23 4
26 24 17
26 25 7
27 0 1
27 1 12
27 2 23
27 3 6
27 4 6
27 5 22
27 6 20
27 7 18
27 8 6
27 9 12
27 10 10
27 11 16
27 12 23
27 13 16
27 14 15
27 15 7
27 16 24
27 17 6
27 18 21
27 19 3
27 20 8
27 21 7
27 22 1
27 23 4
27 24 12
27 25 5
27 26 6
28 0 7
28 1 9
28 2 7
28 3 17
28 4 15
28 5 9
28 6 8
28 7 7
28 8 15
28 9 24
28 10 19
28 11 14
28 12 7
28 13 9
28 14 2
28 15 17
28 16 6
28 17 24
28 18 3
28 19 12
28 20 6
28 21 10
28 22 11
28 23 16
28 24 21
28 25 24
28 26 19
28 27 10
29 0 2
29 1 6
29 2 22
29 3 9
29 4 17
29 5 13
29 6 11
29 7 10
29 8 18
29 9 17
29 10 11
29 11 15
29 12 19
29 13 16
29 14 3
29 15 23
29 16 9
29 17 2
29 18 22
29 19 16
29 20 6
29 21 11
29 22 9
29 23 8
29 24 6
29 25 10
29 26 15
29 27 17
29 28 24
30 0 20
30 1 13
30 2 21
30 3 5
30 4 20
30 5 2
30 6 4
30 7 2
30 8 17
30 9 16
30 10 21
30 11 9
30 12 13
30 13 20
30 14 15
30 15 22
30 16 6
30 17 12
30 18 9
30 19 15
30 20 16
30 21 16
30 22 17
30 23 25
30 24 13
30 25 17
30 26 9
30 27 20
30 28 15
30 29 4
31 0 11
31 1 4
31 2 3
31 3 14
31 4 15
31 5 10
31 6 25
31 7 17
31 8 19
31 9 25
31 10 4
31 11 21
31 12 20
31 13 10
31 14 7
31 15 23
31 16 13
31 17 3
31 18 10
31 19 21
31 20 5
31 21 14
31 22 7
31 23 3
31 24 8
31 25 2
31 26 22
31 27 23
31 28 8
31 29 13
31 30 18
32 0 15
32 1 21
32 2 22
32 3 7
32 4 7
32 5 8
32 6 13
32 7 1
32 8 1
32 9 21
32 10 6
32 11 2
32 12 23
32 13 9
32 14 15
32 15 17
32 16 4
32 17 17
32 18 9
32 19 7
32 20 25
32 21 19
32 22 23
32 23 17
32 24 25
32 25 10
32 26 16
32 27 3
32 28 6
32 29 24
32 30 23
32 31 5
33 0 17
33 1 14
33 2 16
33 3 6
33 4 3
33 5 11
33 6 12
33 7 23
33 8 22
33 9 10
33 10 4
33 11 17
33 12 18
33 13 8
33 14 19
33 15 11
33 16 9
33 17 2
33 18 14
33 19 19
33 20 10
33 21 2
33 22 8
33 23 20
33 24 21
33 25 23
33 26 3
33 27 8
33 28 9
33 29 16
33 30 16
33 31 17
33 32 10
34 0 17
34 1 18
34 2 25
34 3 20
34 4 25
34 5 6
34 6 23
34 7 11
34 8 5
34 9 10
34 10 2
34 11 1
34 12 25
34 13 22
34 14 18
34 15 9
34 16 21
34 17 13
34 18 6
34 19 8
34 20 11
34 21 14
34 22 24
34 23 6
34 24 8
34 25 13
34 26 17
34 27 12
34 28 20
34 29 11
34 30 11
34 31 22
34 32 6
34 33 12
35 0 9
35 1 7
35 2 23
35 3 22
35 4 5
35 5 11
35 6 6
35 7 6
35 8 16
35 9 17
35 10 9
35 11 25
35 12 16
35 13 13
35 14 18
35 15 2
35 16 25
35 17 17
35 18 22
35 19 12
35 20 18
35 21 22
35 22 2
35 23 8
35 24 23
35 25 7
35 26 13
35 27 4
35 28 3
35 29 17
35 30 18
35 31 8
35 32 7
35 33 21
35 34 17
36 0 14
36 1 9
36 2 6
36 3 11
36 4 10
36 5 15
36 6 12
36 7 22
36 8 6
36 9 23
36 10 4
36 11 19
36 12 3
36 13 19
36 14 7
36 15 18
36 16 3
36 17 9
36 18 12
36 19 9
36 20 11
36 21 22
36 22 1
36 23 1
36 24 21
36 25 3
36 26 15
36 27 13
36 28 14
36 29 11
36 30 25
36 31 20
36 32 18
36 33 22
36 34 16
36 35 2
37 0 3
37 1 13
37 2 11
37 3 1
37 4 25
37 5 8
37 6 10
37 7 19
37 8 13
37 9 7
37 10 19
37 11 1
37 12 18
37 13 5
37 14 19
37 15 10
37 16 13
37 17 1
37 18 16
37 19 7
37 20 16
37 21 3
37 22 20
37 23 17
37 24 16
37 25 20
37 26 19
37 27 11
37 28 21
37 29 17
37 30 3
37 31 5
37 32 7
37 33 21
37 34 15
37 35 15
37 36 21
38 0 3
38 1 5
38 2 17
38 3 8
38 4 22
38 5 15
38 6 8
38 7 18
38 8 10
38 9 16
38 10 3
38 11 17
38 12 24
38 13 14
38 14 11
38 15 25
38 16 18
38 17 20
38 18 3
38 19 4
38 20 2
38 21 10
38 22 18
38 23 21
38 24 18
38 25 19
38 26 12
38 27 7
38 28 13
38 29 3
38 30 12
38 31 14
38 32 20
38 33 10
38 34 11
38 35 15
38 36 22
38 37 5
39 0 23
39 1 19
39 2 8
39 3 6
39 4 15
39 5 16
39 6 25
39 7 24
39 8 11
39 9 15
39 10 22
39 11 13
39 12 12
39 13 19
39 14 10
39 15 16
39 16 13
39 17 17
39 18 10
39 19 10
39 20 9
39 21 7
39 22 9
39 23 10
39 24 1
39 25 5
39 26 11
39 27 19
39 28 4
39 29 15
39 30 6
39 31 21
39 32 14
39 33 21
39 34 3
39 35 18
39 36 17
39 37 22
39 38 18
40 0 17
40 1 11
40 2 10
40 3 12
40 4 10
40 5 10
40 6 7
40 7 16
40 8 16
40 9 23
40 10 18
40 11 7
40 12 12
40 13 22
40 14 25
40 15 20
40 16 25
40 17 18
40 18 4
40 19 9
40 20 3
40 21 25
40 22 20
40 23 24
40 24 22
40 25 24
40 26 3
40 27 8
40 28 15
40 29 12
40 30 13
40 31 10
40 32 6
40 33 14
40 34 17
40 35 21
40 36 6
40 37 6
40 38 20
40 39 4
41 0 2
41 1 14
41 2 16
41 3 10
41 4 4
41 5 2
41 6 22
41 7 4
41 8 17
41 9 12
41 10 2
41 11 12
41 12 3
41 13 8
41 14 20
41 15 20
41 16 13
41 17 6
41 18 7
41 19 4
41 20 14
41 21 20
41 22 8
41 23 15
41 24 25
41 25 2
41 26 2
41 27 6
41 28 12
41 29 11
41 30 13
41 31 5
41 32 3
41 33 12
41 34 13
41 35 25
41 36 11
41 37 13
41 38 4
41 39 9
41 40 15
42 0 13
42 1 2
42 2 3
42 3 13
42 4 15
42 5 12
42 6 17
42 7 2
42 8 14
42 9 7
42 10 9
42 11 14
42 12 22
42 13 22
42 14 18
42 15 1
42 16 9
42 17 13
42 18 12
42 19 24
42 20 6
42 21 24
42 22 10
42 23 10
42 24 9
42 25 17
42 26 21
42 27 1
42 28 23
42 29 20
42 30 11
42 31 25
42 32 15
42 33 13
42 34 6
42 35 5
42 36 17
42 37 1
42 38 4
42 39 22
42 40 16
42 41 10
43 0 14
43 1 22
43 2 18
43 3 14
43 4 15
43 5 6
43 6 1
43 7 12
43 8 12
43 9 3
43 10 1
43 11 24
43 12 13
43 13 5
43 14 7
43 15 24
43 16 24
43 17 15
43 18 13
43 19 12
43 20 1
43 21 17
43 22 18
43 23 9
43 24 5
43 25 23
43 26 10
43 27 22
43 28 4
43 29 10
43 30 4
43 31 13
43 32 19
43 33 5
43 34 19
43 35 12
43 36 20
43 37 8
43 38 19
43 39 20
43 40 14
43 41 2
43 42 1
44 0 16
44 1 17
44 2 11
44 3 25
44 4 16
44 5 2
44 6 12
44 7 18
44 8 22
44 9 22
44 10 16
44 11 12
44 12 21
44 13 3
44 14 20
44 15 4
44 16 21
44 17 7
44 18 4
44 19 13
44 20 21
44 21 25
44 22 11
44 23 7
44 24 18
44 25 9
44 26 23
44 27 16
44 28 18
44 29 9
44 30 13
44 31 18
44 32 10
44 33 3
44 34 13
44 35 21
44 36 13
44 37 4
44 38 1
44 39 17
44 40 9
44 41 12
44 42 8
44 43 22
45 0 21
45 1 14
45 2 22
45 3 11
45 4 1
45 5 13
45 6 22
45 7 5
45 8 4
45 9 20
45 10 2
45 11 2
45 12 2
45 13 8
45 14 14
45 15 19
45 16 3
45 17 24
45 18 19
45 19 8
45 20 3
45 21 18
45 22 17
45 23 21
45 24 19
45 25 22
45 26 13
45 27 18
45 28 6
45 29 12
45 30 15
45 31 14
45 32 16
45 33 23
45 34 13
45 35 6
45 36 25
45 37 17
45 38 10
45 39 7
45 40 17
45 41 17
45 42 23
45 43 22
45 44 10
46 0 4
46 1 17
46 2 20
46 3 8
46 4 18
46 5 21
46 6 15
46 7 3
46 8 8
46 9 18
46 10 14
46 11 6
46 12 8
46 13 2
46 14 20
46 15 20
46 16 7
46 17 19
46 18 14
46 19 3
46 20 3
46 21 6
46 22 18
46 23 19
46 24 22
46 25 21
46 26 3
46 27 7
46 28 21
46 29 6
46 30 23
46 31 8
46 32 7
46 33 19
46 34 12
46 35 6
46 36 17
46 37 13
46 38 25
46 39 25
46 40 13
46 41 6
46 42 12
46 43 7
46 44 7
46 45 23
47 0 8
47 1 6
47 2 15
47 3 15
47 4 17
47 5 19
47 6 24
47 7 20
47 8 17
47 9 18
47 10 7
47 11 13
47 12 18
47 13 9
47 14 10
47 15 21
47 16 13
47 17 15
47 18 19
47 19 4
47 20 3
47 21 10
47 22 2
47 23 8
47 24 14
47 25 25
47 26 2
47 27 15
47 28 14
47 29 22
47 30 25
47 31 5
47 32 9
47 33 17
47 34 21
47 35 12
47 36 4
47 37 15
47 38 18
47 39 5
47 40 5
47 41 20
47 42 8
47 43 2
47 44 9
47 45 23
47 46 6
48 0 1
48 1 12
48 2 21
48 3 17
48 4 10
48 5 6
48 6 22
48 7 24
48 8 14
48 9 4
48 10 20
48 11 9
48 12 23
48 13 20
48 14 15
48 15 14
48 16 3
48 17 10
48 18 9
48 19 22
48 20 6
48 21 1
48 22 9
48 23 20
48 24 20
48 25 22
48 26 12
48 27 13
48 28 9
48 29 3
48 30 18
48 31 8
48 32 18
48 33 18
48 34 20
48 35 17
48 36 23
48 37 22
48 38 13
48 39 16
48 40 9
48 41 6
48 42 15
48 43 2
48 44 2
48 45 17
48 46 20
48 47 12
49 0 25
49 1 19
49 2 12
49 3 9
49 4 7
49 5 23
49 6 10
49 7 2
49 8 7
49 9 19
49 10 18
49 11 21
49 12 16
49 13 10
49 14 3
49 15 10
49 16 8
49 17 22
49 18 6
49 19 15
49 20 11
49 21 9
49 22 19
49 23 5
49 24 15
49 25 3
49 26 4
49 27 16
49 28 24
49 29 21
49 30 8
49 31 7
49 32 6
49 33 3
49 34 9
49 35 10
49 36 17
49 37 7
49 38 21
49 39 15
49 40 15
49 41 14
49 42 3
49 43 8
49 44 13
49 45 10
49 46 3
49 47 9
49 48 25
50 0 17
50 1 24
50 2 23
50 3 15
50 4 20
50 5 21
50 6 4
50 7 6
50 8 20
50 9 23
50 10 19
50 11 6
50 12 13
50 13 25
50 14 23
50 15 8
50 16 3
50 17 10
50 18 24
50 19 3
50 20 1
50 21 11
50 22 22
50 23 5
50 24 7
50 25 22
50 26 12
50 27 25
50 28 17
50 29 15
50 30 22
50 31 10
50 32 13
50 33 1
50 34 7
50 35 8
50 36 12
50 37 18
50 38 22
50 39 24
50 40 8
50 41 22
50 42 1
50 43 11
50 44 2
50 45 4
50 46 9
50 47 1
50 48 22
50 49 5
51 0 13
51 1 24
51 2 7
51 3 22
51 4 19
51 5 24
51 6 22
51 7 20
51 8 1
51 9 14
51 10 21
51 11 4
51 12 22
51 13 1
51 14 1
51 15 13
51 16 3
51 17 18
51 18 12
51 19 2
51 20 5
51 21 11
51 22 7
51 23 17
51 24 8
51 25 4
51 26 13
51 27 4
51 28 4
51 29 5
51 30 12
51 31 11
51 32 15
51 33 7
51 34 14
51 35 12
51 36 17
51 37 4
51 38 14
51 39 12
51 40 7
51 41 1
51 42 19
51 43 5
51 44 3
51 45 25
51 46 16
51 47 20
51 48 2
51 49 1
51 50 6
52 0 12
52 1 19
52 2 10
52 3 12
52 4 19
52 5 12
52 6 22
52 7 3
52 8 25
52 9 23
52 10 25
52 11 12
52 12 1
52 13 2
52 14 21
52 15 13
52 16 11
52 17 7
52 18 14
52 19 12
52 20 2
52 21 15
52 22 22
52 23 9
52 24 23
52 25 17
52 26 4
52 27 1
52 28 9
52 29 14
52 30 22
52 31 25
52 32 9
52 33 22
52 34 12
52 35 9
52 36 4
52 37 16
52 38 3
52 39 20
52 40 16
52 41 23
52 42 19
52 43 15
52 44 4
52 45 1
52 46 5
52 47 11
52 48 23
52 49 24
52 50 12
52 51 8
53 0 15
53 1 5
53 2 24
53 3 1
53 4 12
53 5 16
53 6 5
53 7 19
53 8 25
53 9 9
53 10 1
53 11 11
53 12 23
53 13 17
53 14 9
53 15 12
53 16 18
53 17 2
53 18 12
53 19 21
53 20 21
53 21 12
53 22 6
53 23 1
53 24 6
53 25 3
53 26 18
53 27 18
53 28 20
53 29 10
53 30 19
53 31 13
53 32 19
53 33 9
53 34 18
53 35 7
53 36 22
53 37 8
53 38 15
53 39 15
53 40 19
53 41 1
53 42 16
53 43 3
53 44 10
53 45 1
53 46 21
53 47 8
53 48 3
53 49 9
53 50 15
53 51 6
53 52 9
54 0 17
54 1 11
54 2 4
54 3 25
54 4 25
54 5 15
54 6 11
54 7 1
54 8 2
54 9 22
54 10 6
54 11 3
54 12 4
54 13 7
54 14 1
54 15 1
54 16 2
54 17 15
54 18 8
54 19 1
54 20 16
54 21 6
54 22 1
54 23 22
54 24 18
54 25 19
54 26 11
54 27 20
54 28 5
54 29 3
54 30 10
54 31 22
54 32 20
54 33 17
54 34 25
54 35 11
54 36 3
54 37 22
54 38 24
54 39 11
54 40 22
54 41 22
54 42 12
54 43 1
54 44 1
54 45 7
54 46 12
54 47 22
54 48 17
54 49 12
54 50 2
54 51 14
54 52 2
54 53 15
55 0 5
55 1 11
55 2 4
55 3 3
55 4 6
55 5 1
55 6 20
55 7 25
55 8 13
55 9 25
55 10 19
55 11 19
55 12 16
55 13 25
55 14 25
55 15 12
55 16 8
55 17 22
55 18 11
55 19 11
55 20 24
55 21 20
55 22 4
55 23 25
55 24 8
55 25 8
55 26 25
55 27 6
55 28 24
55 29 9
55 30 16
55 31 2
55 32 3
55 33 5
55 34 25
55 35 2
55 36 14
55 37 1
55 38 11
55 39 5
55 40 6
55 41 10
55 42 21
55 43 20
55 44 1
55 45 10
55 46 22
55 47 7
55 48 20
55 49 4
55 50 22
55 51 23
55 52 9
55 53 12
55 54 1
56 0 12
56 1 10
56 2 6
56 3 9
56 4 22
56 5 12
56 6 25
56 7 17
56 8 8
56 9 7
56 10 7
56 11 11
56 12 25
56 13 23
56 14 23
56 15 25
56 16 25
56 17 1
56 18 20
56 19 3
56 20 10
56 21 8
56 22 23
56 23 8
56 24 1
56 25 15
56 26 5
56 27 5
56 28 11
56 29 2
56 30 4
56 31 2
56 32 11
56 33 8
56 34 15
56 35 4
56 36 12
56 37 6
56 38 9
56 39 25
56 40 13
56 41 21
56 42 21
56 43 23
56 44 11
56 45 8
56 46 17
56 47 15
56 48 20
56 49 25
56 50 23
56 51 25
56 52 18
56 53 8
56 54 4
56 55 14
57 0 15
57 1 4
57 2 25
57 3 23
57 4 19
57 5 14
57 6 22
57 7 3
57 8 7
57 9 22
57 10 14
57 11 9
57 12 22
57 13 9
57 14 21
57 15 12
57 16 8
57 17 25
57 18 4
57 19 16
57 20 5
57 21 18
57 22 9
57 23 21
57 24 8
57 25 1
57 26 17
57 27 17
57 28 9
57 29 6
57 30 6
57 31 6
57 32 19
57 33 20
57 34 15
57 35 13
57 36 12
57 37 2
57 38 16
57 39 21
57 40 6
57 41 15
57 42 5
57 43 4
57 44 5
57 45 24
57 46 8
57 47 15
57 48 23
57 49 16
57 50 16
57 51 1
57 52 9
57 53 12
57 54 25
57 55 18
57 56 15
58 0 16
58 1 1
58 2 22
58 3 11
58 4 3
58 5 22
58 6 18
58 7 9
58 8 7
58 9 7
58 10 1
58 11 25
58 12 25
58 13 12
58 14 12
58 15 8
58 16 8
58 17 23
58 18 8
58 19 11
58 20 20
58 21 5
58 22 21
58 23 3
58 24 17
58 25 22
58 26 8
58 27 11
58 28 22
58 29 14
58 30 20
58 31 22
58 32 10
58 33 5
58 34 2
58 35 17
58 36 9
58 37 6
58 38 20
58 39 7
58 40 7
58 41 11
58 42 12
58 43 13
58 44 12
58 45 12
58 46 7
58 47 11
58 48 18
58 49 5
58 50 20
58 51 18
58 52 21
58 53 13
58 54 9
58 55 7
58 56 23
58 57 16
59 0 1
59 1 3
59 2 20
59 3 7
59 4 2
59 5 21
59 6 9
59 7 13
59 8 9
59 9 10
59 10 6
59 11 2
59 12 4
59 13 16
59 14 22
59 15 16
59 16 15
59 17 4
59 18 24
59 19 20
59 20 23
59 21 7
59 22 17
59 23 20
59 24 9
59 25 9
59 26 14
59 27 20
59 28 13
59 29 8
59 30 5
59 31 21
59 32 14
59 33 14
59 34 4
59 35 7
59 36 4
59 37 15
59 38 20
59 39 15
59 40 18
59 41 15
59 42 11
59 43 20
59 44 23
59 45 15
59 46 6
59 47 20
59 48 2
59 49 21
59 50 17
59 51 19
59 52 6
59 53 13
59 54 4
59 55 17
59 56 22
59 57 19
59 58 18
60 0 6
60 1 8
60 2 23
60 3 8
60 4 18
60 5 19
60 6 8
60 7 10
60 8 25
60 9 4
60 10 13
60 11 15
60 12 7
60 13 18
60 14 23
60 15 17
60 16 9
60 17 3
60 18 12
60 19 24
60 20 24
60 21 9
60 22 12
60 23 5
60 24 18
60 25 15
60 26 16
60 27 9
60 28 1
60 29 4
60 30 12
60 31 21
60 32 18
60 33 1
60 34 10
60 35 4
60 36 21
60 37 6
60 38 11
60 39 2
60 40 23
60 41 23
60 42 14
60 43 19
60 44 19
60 45 22
60 46 17
60 47 1
60 48 13
60 49 9
60 50 22
60 51 20
60 52 15
60 53 3
60 54 23
60 55 1
60 56 9
60 57 14
60 58 5
60 59 13
61 0 13
61 1 5
61 2 11
61 3 15
61 4 18
61 5 16
61 6 20
61 7 14
61 8 24
61 9 6
61 10 8
61 11 12
61 12 18
61 13 18
61 14 3
61 15 1
61 16 10
61 17 9
61 18 22
61 19 19
61 20 16
61 21 6
61 22 13
61 23 25
61 24 10
61 25 16
61 26 1
61 27 25
61 28 11
61 29 6
61 30 17
61 31 7
61 32 24
61 33 23
61 34 15
61 35 13
61 36 12
61 37 11
61 38 23
61 39 18
61 40 7
61 41 20
61 42 25
61 43 24
61 44 9
61 45 19
61 46 2
61 47 11
61 48 3
61 49 12
61 50 11
61 51 14
61 52 20
61 53 20
61 54 13
61 55 25
61 56 13
61 57 12
61 58 16
61 59 22
61 60 1
62 0 1
62 1 17
62 2 9
62 3 15
62 4 16
62 5 9
62 6 11
62 7 2
62 8 14
62 9 7
62 10 15
62 11 8
62 12 16
62 13 24
62 14 14
62 15 25
62 16 17
62 17 20
62 18 17
62 19 3
62 20 3
62 21 22
62 22 6
62 23 23
62 24 9
62 25 5
62 26 20
62 27 10
62 28 25
62 29 18
62 30 23
62 31 13
62 32 25
62 33 17
62 34 22
62 35 4
62 36 11
62 37 9
62 38 1
62 39 5
62 40 10
62 41 9
62 42 17
62 43 1
62 44 11
62 45 6
62 46 16
62 47 4
62 48 3
62 49 10
62 50 20
62 51 24
62 52 10
62 53 18
62 54 4
62 55 16
62 56 17
62 57 6
62 58 17
62 59 24
62 60 21
62 61 4
63 0 11
63 1 11
63 2 12
63 3 11
63 4 5
63 5 17
63 6 1
63 7 14
63 8 8
63 9 12
63 10 10
63 11 7
63 12 9
63 13 21
63 14 10
63 15 14
63 16 7
63 17 15
63 18 6
63 19 9
63 20 18
63 21 19
63 22 2
63 23 6
63 24 25
63 25 12
63 26 20
63 27 17
63 28 14
63 29 16
63 30 13
63 31 4
63 32 4
63 33 20
63 34 13
63 35 17
63 36 3
63 37 18
63 38 25
63 39 9
63 40 8
63 41 8
63 42 5
63 43 6
63 44 13
63 45 15
63 46 22
63 47 5
63 48 20
63 49 12
63 50 5
63 51 25
63 52 16
63 53 1
63 54 5
63 55 14
63 56 24
63 57 21
63 58 8
63 59 23
63 60 16
63 61 5
63 62 22
64 0 24
64 1 23
64 2 23
64 3 15
64 4 10
64 5 17
64 6 8
64 7 11
64 8 12
64 9 10
64 10 25
64 11 15
64 12 5
64 13 1
64 14 16
64 15 23
64 16 3
64 17 11
64 18 7
64 19 20
64 20 4
64 21 17
64 22 21
64 23 13
64 24 21
64 25 11
64 26 22
64 27 4
64 28 21
64 29 22
64 30 2
64 31 17
64 32 23
64 33 5
64 34 13
64 35 23
64 36 16
64 37 11
64 38 3
64 39 12
64 40 3
64 41 23
64 42 20
64 43 18
64 44 2
64 45 9
64 46 22
64 47 17
64 48 24
64 49 19
64 50 24
64 51 22
64 52 11
64 53 10
64 54 20
64 55 6
64 56 3
64 57 17
64 58 21
64 59 23
64 60 18
64 61 13
64 62 5
64 63 3
65 0 19
65 1 13
65 2 20
65 3 3
65 4 20
65 5 8
65 6 4
65 7 19
65 8 24
65 9 21
65 10 19
65 11 19
65 12 21
65 13 23
65 14 19
65 15 25
65 16 3
65 17 3
65 18 23
65 19 25
65 20 5
65 21 7
65 22 2
65 23 5
65 24 9
65 25 4
65 26 20
65 27 12
65 28 9
65 29 18
65 30 1
65 31 9
65 32 7
65 33 2
65 34 7
65 35 20
65 36 10
65 37 21
65 38 4
65 39 4
65 40 3
65 41 25
65 42 2
65 43 11
65 44 9
65 45 22
65 46 9
65 47 24
65 48 17
65 49 12
65 50 25
65 51 20
65 52 12
65 53 8
65 54 11
65 55 18
65 56 18
65 57 3
65 58 22
65 59 13
65 60 2
65 61 22
65 62 18
65 63 1
65 64 17
66 0 7
66 1 3
66 2 21
66 3 7
66 4 19
66 5 13
66 6 2
66 7 8
66 8 24
66 9 19
66 10 13
66 11 15
66 12 11
66 13 9
66 14 10
66 15 15
66 16 14
66 17 13
66 18 17
66 19 3
66 20 14
66 21 6
66 22 25
66 23 4
66 24 4
66 25 5
66 26 1
66 27 16
66 28 11
66 29 25
66 30 21
66 31 8
66 32 6
66 33 23
66 34 5
66 35 15
66 36 18
66 37 4
66 38 2
66 39 20
66 40 6
66 41 25
66 42 10
66 43 14
66 44 12
66 45 2
66 46 13
66 47 15
66 48 18
66 49 9
66 50 7
66 51 21
66 52 11
66 53 15
66 54 15
66 55 23
66 56 18
66 57 21
66 58 24
66 59 14
66 60 4
66 61 8
66 62 25
66 63 1
66 64 7
66 65 21
67 0 9
67 1 21
67 2 15
67 3 20
67 4 10
67 5 8
67 6 3
67 7 24
67 8 16
67 9 9
67 10 2
67 11 13
67 12 5
67 13 6
67 14 5
67 15 1
67 16 24
67 17 4
67 18 18
67 19 8
67 20 3
67 21 5
67 22 16
67 23 3
67 24 14
67 25 21
67 26 20
67 27 20
67 28 21
67 29 24
67 30 13
67 31 17
67 32 18
67 33 20
67 34 4
67 35 20
67 36 15
67 37 10
67 38 23
67 39 23
67 40 9
67 41 5
67 42 2
67 43 13
67 44 20
67 45 24
67 46 22
67 47 15
67 48 11
67 49 12
67 50 13
67 51 21
67 52 16
67 53 11
67 54 19
67 55 8
67 56 1
67 57 3
67 58 15
67 59 8
67 60 7
67 61 15
67 62 12
67 63 19
67 64 9
67 65 20
67 66 11
68 0 6
68 1 22
68 2 3
68 3 18
68 4 8
68 5 24
68 6 11
68 7 14
68 8 12
68 9 14
68 10 3
68 11 16
68 12 18
68 13 4
68 14 4
68 15 8
68 16 10
68 17 4
68 18 4
68 19 7
68 20 24
68 21 2
68 22 20
68 23 22
68 24 12
68 25 12
68 26 22
68 27 8
68 28 3
68 29 10
68 30 12
68 31 14
68 32 1
68 33 19
68 34 7
68 35 21
68 36 17
68 37 13
68 38 18
68 39 10
68 40 19
68 41 1
68 42 1
68 43 1
68 44 19
68 45 1
68 46 11
68 47 2
68 48 3
68 49 8
68 50 4
68 51 11
68 52 17
68 53 9
68 54 22
68 55 11
68 56 20
68 57 4
68 58 7
68 59 20
68 60 11
68 61 14
68 62 23
68 63 23
68 64 23
68 65 16
68 66 8
68 67 7
69 0 19
69 1 11
69 2 18
69 3 18
69 4 10
69 5 20
69 6 25
69 7 18
69 8 19
69 9 20
69 10 15
69 11 3
69 12 20
69 13 22
69 14 10
69 15 25
69 16 8
69 17 25
69 18 4
69 19 6
69 20 11
69 21 8
69 22 16
69 23 10
69 24 4
69 25 18
69 26 21
69 27 24
69 28 11
69 29 3
69 30 14
69 31 11
69 32 13
69 33 20
69 34 14
69 35 15
69 36 10
69 37 23
69 38 7
69 39 25
69 40 11
69 41 15
69 42 23
69 43 10
69 44 4
69 45 2
69 46 4
69 47 17
69 48 23
69 49 8
69 50 5
69 51 19
69 52 15
69 53 17
69 54 11
69 55 4
69 56 9
69 57 12
69 58 8
69 59 16
69 60 24
69 61 21
69 62 24
69 63 10
69 64 4
69 65 4
69 66 14
69 67 12
69 68 13
